Welcome to the CBC MILP Solver 
Version: Trunk
Build Date: Apr 16 2020 

Starting solution of the Linear programming relaxation problem using Primal Simplex

Using Python-MIP package version 1.8.1
Machines:  4 Jobs:  4
Order: 
Job  0 : machine 0 ( 10 ) machine 3 ( 1 ) machine 2 ( 6 ) machine 1 ( 7 ) 
Job  1 : machine 0 ( 1 ) machine 3 ( 7 ) machine 1 ( 5 ) machine 2 ( 8 ) 
Job  2 : machine 3 ( 9 ) machine 2 ( 3 ) machine 1 ( 7 ) machine 0 ( 1 ) 
Job  3 : machine 1 ( 7 ) machine 3 ( 3 ) machine 0 ( 9 ) machine 2 ( 10 ) 
K:  44
Job  0 , e: machine  0 ( 0 ) machine  1 ( 17 ) machine  2 ( 11 ) machine  3 ( 10 ) 
Job  1 , e: machine  0 ( 0 ) machine  1 ( 8 ) machine  2 ( 13 ) machine  3 ( 1 ) 
Job  2 , e: machine  0 ( 19 ) machine  1 ( 12 ) machine  2 ( 9 ) machine  3 ( 0 ) 
Job  3 , e: machine  0 ( 10 ) machine  1 ( 0 ) machine  2 ( 19 ) machine  3 ( 7 ) 
Job  0 , f: machine  0 ( 14 ) machine  1 ( 0 ) machine  2 ( 7 ) machine  3 ( 13 ) 
Job  1 , f: machine  0 ( 20 ) machine  1 ( 8 ) machine  2 ( 0 ) machine  3 ( 13 ) 
Job  2 , f: machine  0 ( 0 ) machine  1 ( 1 ) machine  2 ( 8 ) machine  3 ( 11 ) 
Job  3 , f: machine  0 ( 10 ) machine  1 ( 22 ) machine  2 ( 0 ) machine  3 ( 19 ) 
EST and LST:
Job: 0 Machine: 0 EST: 0 LST: 20
Job: 0 Machine: 1 EST: 17 LST: 37
Job: 0 Machine: 2 EST: 11 LST: 31
Job: 0 Machine: 3 EST: 10 LST: 30
Job: 1 Machine: 0 EST: 0 LST: 23
Job: 1 Machine: 1 EST: 8 LST: 31
Job: 1 Machine: 2 EST: 13 LST: 36
Job: 1 Machine: 3 EST: 1 LST: 24
Job: 2 Machine: 0 EST: 19 LST: 43
Job: 2 Machine: 1 EST: 12 LST: 36
Job: 2 Machine: 2 EST: 9 LST: 33
Job: 2 Machine: 3 EST: 0 LST: 24
Job: 3 Machine: 0 EST: 10 LST: 25
Job: 3 Machine: 1 EST: 0 LST: 15
Job: 3 Machine: 2 EST: 19 LST: 34
Job: 3 Machine: 3 EST: 7 LST: 22
Order:
Job: 0 Machine: 0 = 0 
Job: 0 Machine: 1 = 3 
Job: 0 Machine: 2 = 2 
Job: 0 Machine: 3 = 1 
Job: 1 Machine: 0 = 0 
Job: 1 Machine: 1 = 2 
Job: 1 Machine: 2 = 3 
Job: 1 Machine: 3 = 1 
Job: 2 Machine: 0 = 3 
Job: 2 Machine: 1 = 2 
Job: 2 Machine: 2 = 1 
Job: 2 Machine: 3 = 0 
Job: 3 Machine: 0 = 2 
Job: 3 Machine: 1 = 0 
Job: 3 Machine: 2 = 3 
Job: 3 Machine: 3 = 1 
Distances:
Job 0, Machine 0 -> Machine 3: distance 10
Job 0, Machine 0 -> Machine 2: distance 11
Job 0, Machine 0 -> Machine 1: distance 17
Job 0, Machine 3 -> Machine 2: distance 1
Job 0, Machine 3 -> Machine 1: distance 7
Job 0, Machine 2 -> Machine 1: distance 6
Job 1, Machine 0 -> Machine 3: distance 1
Job 1, Machine 0 -> Machine 1: distance 8
Job 1, Machine 0 -> Machine 2: distance 13
Job 1, Machine 3 -> Machine 1: distance 7
Job 1, Machine 3 -> Machine 2: distance 12
Job 1, Machine 1 -> Machine 2: distance 5
Job 2, Machine 3 -> Machine 2: distance 9
Job 2, Machine 3 -> Machine 1: distance 12
Job 2, Machine 3 -> Machine 0: distance 19
Job 2, Machine 2 -> Machine 1: distance 3
Job 2, Machine 2 -> Machine 0: distance 10
Job 2, Machine 1 -> Machine 0: distance 7
Job 3, Machine 1 -> Machine 3: distance 7
Job 3, Machine 1 -> Machine 0: distance 10
Job 3, Machine 1 -> Machine 2: distance 19
Job 3, Machine 3 -> Machine 0: distance 3
Job 3, Machine 3 -> Machine 2: distance 12
Job 3, Machine 0 -> Machine 2: distance 9
McCormic linearization
{(0, 1), (0, 0), (2, 1), (2, 0), (1, 1)}
[(0, 1), (0, 0), (2, 1), (2, 0), (1, 1)]
obj:  0.9761206535400084
solutions:  1
+ 0.041474654377880185x(0,1) + 0.01131126937578551x(2,1) + 0.0029325513196480878x(1,1) 
C:  28.999999999999996
x(0,0) = 0.00	 x(0,1) = 19.43	 x(0,2) = 13.43	 x(0,3) = 10.00	 
x(1,0) = 8.00	 x(1,1) = 16.00	 x(1,2) = 21.00	 x(1,3) = 9.00	 
x(2,0) = 20.00	 x(2,1) = 13.00	 x(2,2) = 10.00	 x(2,3) = 1.00	 
x(3,0) = 10.00	 x(3,1) = 0.00	 x(3,2) = 19.00	 x(3,3) = 7.00	 
y(0,1,0) = 0.37	 y(1,0,0) = 0.62	 
y(0,2,0) = 0.48	 y(2,0,0) = 0.52	 
y(0,3,0) = 1.00	 y(3,0,0) = 0.00	 
y(1,2,0) = 0.30	 y(2,1,0) = 0.70	 
y(1,3,0) = 0.96	 y(3,1,0) = 0.04	 
y(2,3,0) = 0.00	 y(3,2,0) = 1.00	 
y(0,1,1) = 0.37	 y(1,0,1) = 0.63	 
y(0,2,1) = 0.02	 y(2,0,1) = 0.98	 
y(0,3,1) = 0.00	 y(3,0,1) = 1.00	 
y(1,2,1) = 0.11	 y(2,1,1) = 0.89	 
y(1,3,1) = 0.38	 y(3,1,1) = 0.62	 
y(2,3,1) = 0.00	 y(3,2,1) = 1.00	 
y(0,1,2) = 0.61	 y(1,0,2) = 0.39	 
y(0,2,2) = 0.42	 y(2,0,2) = 0.58	 
y(0,3,2) = 0.98	 y(3,0,2) = 0.02	 
y(1,2,2) = 0.00	 y(2,1,2) = 1.00	 
y(1,3,2) = 0.26	 y(3,1,2) = 0.74	 
y(2,3,2) = 0.73	 y(3,2,2) = 0.27	 
y(0,1,3) = 0.29	 y(1,0,3) = 0.71	 
y(0,2,3) = 0.00	 y(2,0,3) = 1.00	 
y(0,3,3) = 0.00	 y(3,0,3) = 1.00	 
y(1,2,3) = 0.03	 y(2,1,3) = 0.97	 
y(1,3,3) = 0.04	 y(3,1,3) = 0.96	 
y(2,3,3) = 0.36	 y(3,2,3) = 0.64	 
{(0, 1), (0, 0), (2, 1), (2, 0), (1, 1)}
obj:  1.0
erro
[(0, 1), (0, 0), (2, 1), (2, 0), (1, 1)]
cliques:  0 mip: 49
C:  29.639999999997986
x(0,0) = 0.00	 x(0,1) = 20.00	 x(0,2) = 14.00	 x(0,3) = 10.00	 
x(1,0) = -0.00	 x(1,1) = 8.00	 x(1,2) = 13.00	 x(1,3) = 1.00	 
x(2,0) = 20.00	 x(2,1) = 13.00	 x(2,2) = 10.00	 x(2,3) = 1.00	 
x(3,0) = 10.00	 x(3,1) = 0.00	 x(3,2) = 19.00	 x(3,3) = 7.00	 
y(0,1,0) = 0.04	 y(1,0,0) = 0.96	 
y(0,2,0) = 0.48	 y(2,0,0) = 0.52	 
y(0,3,0) = 1.00	 y(3,0,0) = 0.00	 
y(1,2,0) = 0.55	 y(2,1,0) = 0.45	 
y(1,3,0) = 0.62	 y(3,1,0) = 0.38	 
y(2,3,0) = 0.00	 y(3,2,0) = 1.00	 
y(0,1,1) = 0.00	 y(1,0,1) = 1.00	 
y(0,2,1) = 0.00	 y(2,0,1) = 1.00	 
y(0,3,1) = 0.00	 y(3,0,1) = 1.00	 
y(1,2,1) = 0.34	 y(2,1,1) = 0.66	 
y(1,3,1) = 0.04	 y(3,1,1) = 0.96	 
y(2,3,1) = 0.00	 y(3,2,1) = 1.00	 
y(0,1,2) = 0.50	 y(1,0,2) = 0.50	 
y(0,2,2) = 0.36	 y(2,0,2) = 0.64	 
y(0,3,2) = 0.90	 y(3,0,2) = 0.10	 
y(1,2,2) = 0.00	 y(2,1,2) = 1.00	 
y(1,3,2) = 0.92	 y(3,1,2) = 0.08	 
y(2,3,2) = 0.73	 y(3,2,2) = 0.27	 
y(0,1,3) = 0.09	 y(1,0,3) = 0.91	 
y(0,2,3) = 0.48	 y(2,0,3) = 0.52	 
y(0,3,3) = 0.00	 y(3,0,3) = 1.00	 
y(1,2,3) = 0.28	 y(2,1,3) = 0.72	 
y(1,3,3) = 0.38	 y(3,1,3) = 0.62	 
y(2,3,3) = 0.36	 y(3,2,3) = 0.64	 
{(1, 2), (1, 3), (0, 2), (2, 3), (0, 3), (1, 1)}
obj:  0.22222222222156313
solutions:  1
+ 0.1111111111111111x(1,3) + 0.11111111111111109x(2,3) 
[(1, 2), (1, 3), (0, 2), (2, 3), (0, 3), (1, 1)]
cliques:  1 mip: 35
C:  31.000000000000007
x(0,0) = 1.09	 x(0,1) = 18.09	 x(0,2) = 12.09	 x(0,3) = 11.09	 
x(1,0) = 0.00	 x(1,1) = 8.00	 x(1,2) = 13.00	 x(1,3) = 1.00	 
x(2,0) = 27.00	 x(2,1) = 20.00	 x(2,2) = 17.00	 x(2,3) = 8.00	 
x(3,0) = 12.00	 x(3,1) = 2.00	 x(3,2) = 21.00	 x(3,3) = 9.00	 
y(0,1,0) = 0.00	 y(1,0,0) = 1.00	 
y(0,2,0) = 0.69	 y(2,0,0) = 0.31	 
y(0,3,0) = 1.00	 y(3,0,0) = 0.00	 
y(1,2,0) = 0.64	 y(2,1,0) = 0.36	 
y(1,3,0) = 0.62	 y(3,1,0) = 0.38	 
y(2,3,0) = 0.00	 y(3,2,0) = 1.00	 
y(0,1,1) = 0.00	 y(1,0,1) = 1.00	 
y(0,2,1) = 0.61	 y(2,0,1) = 0.39	 
y(0,3,1) = 0.00	 y(3,0,1) = 1.00	 
y(1,2,1) = 0.54	 y(2,1,1) = 0.46	 
y(1,3,1) = 0.07	 y(3,1,1) = 0.93	 
y(2,3,1) = 0.00	 y(3,2,1) = 1.00	 
y(0,1,2) = 0.79	 y(1,0,2) = 0.21	 
y(0,2,2) = 0.53	 y(2,0,2) = 0.47	 
y(0,3,2) = 1.00	 y(3,0,2) = 0.00	 
y(1,2,2) = 0.30	 y(2,1,2) = 0.70	 
y(1,3,2) = 1.00	 y(3,1,2) = 0.00	 
y(2,3,2) = 0.95	 y(3,2,2) = 0.05	 
y(0,1,3) = 0.05	 y(1,0,3) = 0.95	 
y(0,2,3) = 0.54	 y(2,0,3) = 0.46	 
y(0,3,3) = 0.06	 y(3,0,3) = 0.94	 
y(1,2,3) = 0.50	 y(2,1,3) = 0.50	 
y(1,3,3) = 1.00	 y(3,1,3) = 0.00	 
y(2,3,3) = 0.16	 y(3,2,3) = 0.84	 
{(1, 0), (1, 3), (2, 3), (0, 3)}
obj:  0.845446619640168
solutions:  1
+ 0.06713164777680906x(1,3) + 0.06102877070619008x(2,3) + 0.02615518744551001x(0,3) 
[(1, 0), (1, 3), (2, 3), (0, 3)]
cliques:  1 mip: 68
C:  31.02816901408451
x(0,0) = 1.15	 x(0,1) = 20.36	 x(0,2) = 13.56	 x(0,3) = 12.56	 
x(1,0) = 0.00	 x(1,1) = 8.11	 x(1,2) = 13.11	 x(1,3) = 1.11	 
x(2,0) = 30.03	 x(2,1) = 23.03	 x(2,2) = 20.03	 x(2,3) = 11.03	 
x(3,0) = 11.15	 x(3,1) = 1.11	 x(3,2) = 20.99	 x(3,3) = 8.15	 
y(0,1,0) = 0.00	 y(1,0,0) = 1.00	 
y(0,2,0) = 0.88	 y(2,0,0) = 0.12	 
y(0,3,0) = 1.00	 y(3,0,0) = 0.00	 
y(1,2,0) = 0.99	 y(2,1,0) = 0.01	 
y(1,3,0) = 0.95	 y(3,1,0) = 0.05	 
y(2,3,0) = 0.00	 y(3,2,0) = 1.00	 
y(0,1,1) = -0.00	 y(1,0,1) = 1.00	 
y(0,2,1) = 0.64	 y(2,0,1) = 0.36	 
y(0,3,1) = 0.00	 y(3,0,1) = 1.00	 
y(1,2,1) = 0.99	 y(2,1,1) = 0.01	 
y(1,3,1) = 0.00	 y(3,1,1) = 1.00	 
y(2,3,1) = 0.00	 y(3,2,1) = 1.00	 
y(0,1,2) = 0.57	 y(1,0,2) = 0.43	 
y(0,2,2) = 0.38	 y(2,0,2) = 0.62	 
y(0,3,2) = 1.00	 y(3,0,2) = 0.00	 
y(1,2,2) = 0.97	 y(2,1,2) = 0.03	 
y(1,3,2) = 1.00	 y(3,1,2) = 0.00	 
y(2,3,2) = 0.88	 y(3,2,2) = 0.12	 
y(0,1,3) = 0.00	 y(1,0,3) = 1.00	 
y(0,2,3) = 0.32	 y(2,0,3) = 0.68	 
y(0,3,3) = 0.00	 y(3,0,3) = 1.00	 
y(1,2,3) = 0.99	 y(2,1,3) = 0.01	 
y(1,3,3) = 1.00	 y(3,1,3) = -0.00	 
y(2,3,3) = 0.00	 y(3,2,3) = 1.00	 
{(1, 2), (0, 1), (0, 2), (2, 3), (2, 2), (0, 3), (1, 1)}
obj:  0.8660579638251071
solutions:  1
+ 0.04672897196261683x(1,2) + 0.018691588785046724x(0,2) 
[(1, 2), (0, 1), (0, 2), (2, 3), (2, 2), (0, 3), (1, 1)]
cliques:  1 mip: 116
C:  31.999999999998153
x(0,0) = 1.00	 x(0,1) = 21.21	 x(0,2) = 15.21	 x(0,3) = 14.21	 
x(1,0) = 0.00	 x(1,1) = 9.91	 x(1,2) = 15.32	 x(1,3) = 1.00	 
x(2,0) = 29.77	 x(2,1) = 22.77	 x(2,2) = 18.66	 x(2,3) = 9.66	 
x(3,0) = 12.38	 x(3,1) = 2.38	 x(3,2) = 21.38	 x(3,3) = 9.38	 
y(0,1,0) = 0.00	 y(1,0,0) = 1.00	 
y(0,2,0) = 0.81	 y(2,0,0) = 0.19	 
y(0,3,0) = 1.00	 y(3,0,0) = 0.00	 
y(1,2,0) = 0.86	 y(2,1,0) = 0.14	 
y(1,3,0) = 0.90	 y(3,1,0) = 0.10	 
y(2,3,0) = 0.00	 y(3,2,0) = 1.00	 
y(0,1,1) = 0.00	 y(1,0,1) = 1.00	 
y(0,2,1) = 0.35	 y(2,0,1) = 0.65	 
y(0,3,1) = 0.00	 y(3,0,1) = 1.00	 
y(1,2,1) = 0.80	 y(2,1,1) = 0.20	 
y(1,3,1) = 0.00	 y(3,1,1) = 1.00	 
y(2,3,1) = 0.00	 y(3,2,1) = 1.00	 
y(0,1,2) = 0.55	 y(1,0,2) = 0.45	 
y(0,2,2) = 0.34	 y(2,0,2) = 0.66	 
y(0,3,2) = 0.95	 y(3,0,2) = 0.05	 
y(1,2,2) = 0.40	 y(2,1,2) = 0.60	 
y(1,3,2) = 0.92	 y(3,1,2) = 0.08	 
y(2,3,2) = 0.98	 y(3,2,2) = 0.02	 
y(0,1,3) = 0.00	 y(1,0,3) = 1.00	 
y(0,2,3) = 0.41	 y(2,0,3) = 0.59	 
y(0,3,3) = 0.00	 y(3,0,3) = 1.00	 
y(1,2,3) = 0.76	 y(2,1,3) = 0.24	 
y(1,3,3) = 1.00	 y(3,1,3) = 0.00	 
y(2,3,3) = 0.11	 y(3,2,3) = 0.89	 
{(1, 2), (0, 1), (0, 2), (2, 3), (2, 2), (0, 3), (1, 1)}
obj:  1.0
erro
[(1, 2), (0, 1), (0, 2), (2, 3), (2, 2), (0, 3), (1, 1)]
cliques:  0 mip: 96
C:  32.00000000000001
x(0,0) = 1.96	 x(0,1) = 20.96	 x(0,2) = 14.96	 x(0,3) = 13.96	 
x(1,0) = 0.00	 x(1,1) = 10.00	 x(1,2) = 15.42	 x(1,3) = 3.00	 
x(2,0) = 29.32	 x(2,1) = 22.32	 x(2,2) = 17.66	 x(2,3) = 8.66	 
x(3,0) = 11.96	 x(3,1) = 0.00	 x(3,2) = 20.96	 x(3,3) = 7.00	 
y(0,1,0) = 0.21	 y(1,0,0) = 0.79	 
y(0,2,0) = 0.87	 y(2,0,0) = 0.13	 
y(0,3,0) = 1.00	 y(3,0,0) = 0.00	 
y(1,2,0) = 0.93	 y(2,1,0) = 0.07	 
y(1,3,0) = 1.00	 y(3,1,0) = 0.00	 
y(2,3,0) = 0.00	 y(3,2,0) = 1.00	 
y(0,1,1) = 0.03	 y(1,0,1) = 0.97	 
y(0,2,1) = 0.32	 y(2,0,1) = 0.68	 
y(0,3,1) = 0.00	 y(3,0,1) = 1.00	 
y(1,2,1) = 0.86	 y(2,1,1) = 0.14	 
y(1,3,1) = 0.00	 y(3,1,1) = 1.00	 
y(2,3,1) = 0.00	 y(3,2,1) = 1.00	 
y(0,1,2) = 0.53	 y(1,0,2) = 0.47	 
y(0,2,2) = 0.26	 y(2,0,2) = 0.74	 
y(0,3,2) = 1.00	 y(3,0,2) = 0.00	 
y(1,2,2) = 0.37	 y(2,1,2) = 0.63	 
y(1,3,2) = 0.90	 y(3,1,2) = 0.10	 
y(2,3,2) = 0.99	 y(3,2,2) = 0.01	 
y(0,1,3) = 0.00	 y(1,0,3) = 1.00	 
y(0,2,3) = 0.29	 y(2,0,3) = 0.71	 
y(0,3,3) = 0.00	 y(3,0,3) = 1.00	 
y(1,2,3) = 0.83	 y(2,1,3) = 0.17	 
y(1,3,3) = 0.78	 y(3,1,3) = 0.22	 
y(2,3,3) = 0.22	 y(3,2,3) = 0.78	 
{(1, 2), (0, 1), (1, 3), (0, 2), (2, 3), (0, 3), (1, 1)}
obj:  1.0000000000000002
erro
[(1, 2), (0, 1), (1, 3), (0, 2), (2, 3), (0, 3), (1, 1)]
cliques:  0 mip: 95
C:  31.999999999999996
x(0,0) = 0.00	 x(0,1) = 19.71	 x(0,2) = 13.71	 x(0,3) = 11.16	 
x(1,0) = 0.00	 x(1,1) = 10.48	 x(1,2) = 15.92	 x(1,3) = 3.48	 
x(2,0) = 31.00	 x(2,1) = 24.00	 x(2,2) = 16.77	 x(2,3) = 7.77	 
x(3,0) = 12.10	 x(3,1) = 1.16	 x(3,2) = 21.10	 x(3,3) = 8.16	 
y(0,1,0) = 0.24	 y(1,0,0) = 0.76	 
y(0,2,0) = 0.89	 y(2,0,0) = 0.11	 
y(0,3,0) = 1.00	 y(3,0,0) = 0.00	 
y(1,2,0) = 0.89	 y(2,1,0) = 0.11	 
y(1,3,0) = 1.00	 y(3,1,0) = 0.00	 
y(2,3,0) = 0.00	 y(3,2,0) = 1.00	 
y(0,1,1) = 0.07	 y(1,0,1) = 0.93	 
y(0,2,1) = 0.48	 y(2,0,1) = 0.52	 
y(0,3,1) = 0.00	 y(3,0,1) = 1.00	 
y(1,2,1) = 0.80	 y(2,1,1) = 0.20	 
y(1,3,1) = 0.00	 y(3,1,1) = 1.00	 
y(2,3,1) = 0.00	 y(3,2,1) = 1.00	 
y(0,1,2) = 0.61	 y(1,0,2) = 0.39	 
y(0,2,2) = 0.26	 y(2,0,2) = 0.74	 
y(0,3,2) = 0.98	 y(3,0,2) = 0.02	 
y(1,2,2) = 0.23	 y(2,1,2) = 0.77	 
y(1,3,2) = 0.89	 y(3,1,2) = 0.11	 
y(2,3,2) = 0.94	 y(3,2,2) = 0.06	 
y(0,1,3) = 0.00	 y(1,0,3) = 1.00	 
y(0,2,3) = 0.32	 y(2,0,3) = 0.68	 
y(0,3,3) = 0.00	 y(3,0,3) = 1.00	 
y(1,2,3) = 0.75	 y(2,1,3) = 0.25	 
y(1,3,3) = 0.78	 y(3,1,3) = 0.22	 
y(2,3,3) = 0.44	 y(3,2,3) = 0.56	 
{(0, 1), (1, 2), (2, 1), (2, 2), (0, 2)}
obj:  0.9851671277680447
solutions:  1
+ 0.03915171288743882x(1,2) + 0.0038064165307232227x(2,2) + 0.021750951604132675x(0,2) 
[(0, 1), (1, 2), (2, 1), (2, 2), (0, 2)]
cliques:  1 mip: 97
C:  32.0
x(0,0) = 2.61	 x(0,1) = 20.93	 x(0,2) = 14.93	 x(0,3) = 12.61	 
x(1,0) = 0.00	 x(1,1) = 10.72	 x(1,2) = 15.72	 x(1,3) = 1.92	 
x(2,0) = 31.00	 x(2,1) = 24.00	 x(2,2) = 17.87	 x(2,3) = 8.87	 
x(3,0) = 12.19	 x(3,1) = 0.05	 x(3,2) = 21.19	 x(3,3) = 7.05	 
y(0,1,0) = 0.00	 y(1,0,0) = 1.00	 
y(0,2,0) = 0.84	 y(2,0,0) = 0.16	 
y(0,3,0) = 0.98	 y(3,0,0) = 0.02	 
y(1,2,0) = 0.88	 y(2,1,0) = 0.12	 
y(1,3,0) = 1.00	 y(3,1,0) = 0.00	 
y(2,3,0) = 0.00	 y(3,2,0) = 1.00	 
y(0,1,1) = 0.07	 y(1,0,1) = 0.93	 
y(0,2,1) = 0.51	 y(2,0,1) = 0.49	 
y(0,3,1) = 0.00	 y(3,0,1) = 1.00	 
y(1,2,1) = 0.79	 y(2,1,1) = 0.21	 
y(1,3,1) = 0.00	 y(3,1,1) = 1.00	 
y(2,3,1) = 0.00	 y(3,2,1) = 1.00	 
y(0,1,2) = 0.63	 y(1,0,2) = 0.37	 
y(0,2,2) = 0.26	 y(2,0,2) = 0.74	 
y(0,3,2) = 1.00	 y(3,0,2) = 0.00	 
y(1,2,2) = 0.22	 y(2,1,2) = 0.78	 
y(1,3,2) = 0.90	 y(3,1,2) = 0.10	 
y(2,3,2) = 0.99	 y(3,2,2) = 0.01	 
y(0,1,3) = 0.00	 y(1,0,3) = 1.00	 
y(0,2,3) = 0.35	 y(2,0,3) = 0.65	 
y(0,3,3) = 0.50	 y(3,0,3) = 0.50	 
y(1,2,3) = 0.72	 y(2,1,3) = 0.28	 
y(1,3,3) = 0.76	 y(3,1,3) = 0.24	 
y(2,3,3) = 0.05	 y(3,2,3) = 0.95	 
{(0, 1), (0, 0), (1, 3), (3, 3), (3, 1), (2, 3), (0, 3)}
obj:  0.860047489781789
solutions:  1
+ 0.055467511885895424x(1,3) + 0.02377179080824086x(3,3) + 0.05705229793977814x(2,3) + 0.006339144215530902x(0,3) 
[(0, 1), (0, 0), (1, 3), (3, 3), (3, 1), (2, 3), (0, 3)]
cliques:  1 mip: 101
C:  32.00000000000001
x(0,0) = 2.61	 x(0,1) = 22.18	 x(0,2) = 16.18	 x(0,3) = 15.10	 
x(1,0) = 0.00	 x(1,1) = 9.93	 x(1,2) = 14.93	 x(1,3) = 2.93	 
x(2,0) = 31.00	 x(2,1) = 24.00	 x(2,2) = 18.02	 x(2,3) = 9.02	 
x(3,0) = 12.55	 x(3,1) = 2.55	 x(3,2) = 21.55	 x(3,3) = 9.55	 
y(0,1,0) = 0.58	 y(1,0,0) = 0.42	 
y(0,2,0) = 0.87	 y(2,0,0) = 0.13	 
y(0,3,0) = 1.00	 y(3,0,0) = 0.00	 
y(1,2,0) = 0.91	 y(2,1,0) = 0.09	 
y(1,3,0) = 1.00	 y(3,1,0) = 0.00	 
y(2,3,0) = 0.00	 y(3,2,0) = 1.00	 
y(0,1,1) = 0.00	 y(1,0,1) = 1.00	 
y(0,2,1) = 0.44	 y(2,0,1) = 0.56	 
y(0,3,1) = 0.00	 y(3,0,1) = 1.00	 
y(1,2,1) = 0.86	 y(2,1,1) = 0.14	 
y(1,3,1) = 0.00	 y(3,1,1) = 1.00	 
y(2,3,1) = 0.00	 y(3,2,1) = 1.00	 
y(0,1,2) = 0.70	 y(1,0,2) = 0.30	 
y(0,2,2) = 0.25	 y(2,0,2) = 0.75	 
y(0,3,2) = 0.96	 y(3,0,2) = 0.04	 
y(1,2,2) = 0.50	 y(2,1,2) = 0.50	 
y(1,3,2) = 0.94	 y(3,1,2) = 0.06	 
y(2,3,2) = 0.98	 y(3,2,2) = 0.02	 
y(0,1,3) = 0.00	 y(1,0,3) = 1.00	 
y(0,2,3) = 0.22	 y(2,0,3) = 0.78	 
y(0,3,3) = 0.30	 y(3,0,3) = 0.70	 
y(1,2,3) = 0.81	 y(2,1,3) = 0.19	 
y(1,3,3) = 0.85	 y(3,1,3) = 0.15	 
y(2,3,3) = 0.55	 y(3,2,3) = 0.45	 
{(1, 2), (0, 1), (1, 1), (2, 3), (2, 2), (0, 3), (0, 2)}
obj:  0.9999999999999998
erro
[(1, 2), (0, 1), (1, 1), (2, 3), (2, 2), (0, 3), (0, 2)]
cliques:  0 mip: 108
C:  32.00000000000001
x(0,0) = 4.31	 x(0,1) = 21.92	 x(0,2) = 15.92	 x(0,3) = 14.31	 
x(1,0) = 1.24	 x(1,1) = 9.81	 x(1,2) = 15.03	 x(1,3) = 2.81	 
x(2,0) = 31.00	 x(2,1) = 24.00	 x(2,2) = 18.29	 x(2,3) = 9.29	 
x(3,0) = 12.41	 x(3,1) = 2.41	 x(3,2) = 21.41	 x(3,3) = 9.41	 
y(0,1,0) = 0.25	 y(1,0,0) = 0.75	 
y(0,2,0) = 0.81	 y(2,0,0) = 0.19	 
y(0,3,0) = 0.90	 y(3,0,0) = 0.10	 
y(1,2,0) = 0.96	 y(2,1,0) = 0.04	 
y(1,3,0) = 1.00	 y(3,1,0) = 0.00	 
y(2,3,0) = 0.00	 y(3,2,0) = 1.00	 
y(0,1,1) = 0.00	 y(1,0,1) = 1.00	 
y(0,2,1) = 0.36	 y(2,0,1) = 0.64	 
y(0,3,1) = 0.00	 y(3,0,1) = 1.00	 
y(1,2,1) = 0.89	 y(2,1,1) = 0.11	 
y(1,3,1) = 0.00	 y(3,1,1) = 1.00	 
y(2,3,1) = 0.00	 y(3,2,1) = 1.00	 
y(0,1,2) = 0.56	 y(1,0,2) = 0.44	 
y(0,2,2) = 0.24	 y(2,0,2) = 0.76	 
y(0,3,2) = 0.97	 y(3,0,2) = 0.03	 
y(1,2,2) = 0.47	 y(2,1,2) = 0.53	 
y(1,3,2) = 0.93	 y(3,1,2) = 0.07	 
y(2,3,2) = 0.99	 y(3,2,2) = 0.01	 
y(0,1,3) = 0.00	 y(1,0,3) = 1.00	 
y(0,2,3) = 0.28	 y(2,0,3) = 0.72	 
y(0,3,3) = 0.68	 y(3,0,3) = 0.32	 
y(1,2,3) = 0.94	 y(2,1,3) = 0.06	 
y(1,3,3) = 0.83	 y(3,1,3) = 0.17	 
y(2,3,3) = 0.44	 y(3,2,3) = 0.56	 
{(1, 2), (0, 1), (1, 1), (2, 3), (2, 2), (0, 3), (0, 2)}
obj:  0.9999999999999999
erro
[(1, 2), (0, 1), (1, 1), (2, 3), (2, 2), (0, 3), (0, 2)]
cliques:  0 mip: 108
C:  32.00000000000001
x(0,0) = 2.32	 x(0,1) = 21.87	 x(0,2) = 15.26	 x(0,3) = 14.26	 
x(1,0) = 1.90	 x(1,1) = 9.90	 x(1,2) = 15.30	 x(1,3) = 2.90	 
x(2,0) = 31.00	 x(2,1) = 24.00	 x(2,2) = 18.97	 x(2,3) = 9.97	 
x(3,0) = 11.86	 x(3,1) = 0.56	 x(3,2) = 20.86	 x(3,3) = 7.56	 
y(0,1,0) = 0.65	 y(1,0,0) = 0.35	 
y(0,2,0) = 0.86	 y(2,0,0) = 0.14	 
y(0,3,0) = 0.98	 y(3,0,0) = 0.02	 
y(1,2,0) = 0.91	 y(2,1,0) = 0.09	 
y(1,3,0) = 1.00	 y(3,1,0) = 0.00	 
y(2,3,0) = 0.00	 y(3,2,0) = 1.00	 
y(0,1,1) = 0.06	 y(1,0,1) = 0.94	 
y(0,2,1) = 0.39	 y(2,0,1) = 0.61	 
y(0,3,1) = 0.00	 y(3,0,1) = 1.00	 
y(1,2,1) = 1.00	 y(2,1,1) = 0.00	 
y(1,3,1) = 0.00	 y(3,1,1) = 1.00	 
y(2,3,1) = 0.00	 y(3,2,1) = 1.00	 
y(0,1,2) = 0.45	 y(1,0,2) = 0.55	 
y(0,2,2) = 0.27	 y(2,0,2) = 0.73	 
y(0,3,2) = 0.94	 y(3,0,2) = 0.06	 
y(1,2,2) = 0.40	 y(2,1,2) = 0.60	 
y(1,3,2) = 0.90	 y(3,1,2) = 0.10	 
y(2,3,2) = 0.93	 y(3,2,2) = 0.07	 
y(0,1,3) = 0.00	 y(1,0,3) = 1.00	 
y(0,2,3) = 0.34	 y(2,0,3) = 0.66	 
y(0,3,3) = 0.48	 y(3,0,3) = 0.52	 
y(1,2,3) = 1.00	 y(2,1,3) = 0.00	 
y(1,3,3) = 0.85	 y(3,1,3) = 0.15	 
y(2,3,3) = 0.03	 y(3,2,3) = 0.97	 
{(0, 1), (0, 0), (1, 3), (3, 3), (3, 1), (2, 3), (0, 3)}
obj:  0.9436430216121656
solutions:  1
+ 0.006122448979591835x(1,3) + 0.10010465724751438x(3,3) + 0.014599686028257461x(2,3) + 0.0016221873364730527x(0,3) 
[(0, 1), (0, 0), (1, 3), (3, 3), (3, 1), (2, 3), (0, 3)]
cliques:  1 mip: 105
C:  32.00000000000001
x(0,0) = 2.21	 x(0,1) = 23.63	 x(0,2) = 17.63	 x(0,3) = 14.10	 
x(1,0) = 1.07	 x(1,1) = 9.64	 x(1,2) = 14.64	 x(1,3) = 2.07	 
x(2,0) = 31.00	 x(2,1) = 24.00	 x(2,2) = 19.25	 x(2,3) = 10.11	 
x(3,0) = 12.21	 x(3,1) = 2.21	 x(3,2) = 21.70	 x(3,3) = 9.21	 
y(0,1,0) = 0.52	 y(1,0,0) = 0.48	 
y(0,2,0) = 0.83	 y(2,0,0) = 0.17	 
y(0,3,0) = 1.00	 y(3,0,0) = 0.00	 
y(1,2,0) = 0.89	 y(2,1,0) = 0.11	 
y(1,3,0) = 1.00	 y(3,1,0) = 0.00	 
y(2,3,0) = 0.00	 y(3,2,0) = 1.00	 
y(0,1,1) = 0.02	 y(1,0,1) = 0.98	 
y(0,2,1) = 0.28	 y(2,0,1) = 0.72	 
y(0,3,1) = 0.00	 y(3,0,1) = 1.00	 
y(1,2,1) = 1.00	 y(2,1,1) = 0.00	 
y(1,3,1) = 0.00	 y(3,1,1) = 1.00	 
y(2,3,1) = 0.00	 y(3,2,1) = 1.00	 
y(0,1,2) = 0.33	 y(1,0,2) = 0.67	 
y(0,2,2) = 0.24	 y(2,0,2) = 0.76	 
y(0,3,2) = 0.89	 y(3,0,2) = 0.11	 
y(1,2,2) = 0.53	 y(2,1,2) = 0.47	 
y(1,3,2) = 0.96	 y(3,1,2) = 0.04	 
y(2,3,2) = 0.97	 y(3,2,2) = 0.03	 
y(0,1,3) = 0.00	 y(1,0,3) = 1.00	 
y(0,2,3) = 0.37	 y(2,0,3) = 0.63	 
y(0,3,3) = 0.67	 y(3,0,3) = 0.33	 
y(1,2,3) = 0.80	 y(2,1,3) = 0.20	 
y(1,3,3) = 0.82	 y(3,1,3) = 0.18	 
y(2,3,3) = 0.23	 y(3,2,3) = 0.77	 
{(1, 0), (0, 0)}
obj:  2.316000556586547
erro
[(1, 0), (0, 0)]
cliques:  0 mip: 0
iterações: 12 cortes cliques encontrados: 7 mip: 1006 objective:  32.00000000000001
Coin0506I Presolve 157 (-171) rows, 90 (-71) columns and 490 (-260) elements
Clp1000I sum of infeasibilities 1.79124e-08 - average 1.14092e-10, 0 fixed columns
Coin0506I Presolve 157 (0) rows, 90 (0) columns and 490 (0) elements
Clp0029I End of values pass after 90 iterations
Clp0000I Optimal - objective value 29
Clp0000I Optimal - objective value 29
Coin0511I After Postsolve, objective 29, infeasibilities - dual 0 (0), primal 0 (0)
Clp0000I Optimal - objective value 29
Clp0000I Optimal - objective value 29
Clp0000I Optimal - objective value 29
Coin0511I After Postsolve, objective 29, infeasibilities - dual 0 (0), primal 0 (0)
Clp0032I Optimal objective 29 - 0 iterations time 0.012, Presolve 0.00, Idiot 0.01
Coin3009W Conflict graph built in 0.001 seconds, density: 0.070%
